\* Supply-Demand-Problem *\
Minimize
OBJ: __dummy
Subject To
_dummy: __dummy = 0
_C1: __dummy <= 0
_C10: __dummy <= 0
_C100: __dummy <= 0
_C101: __dummy <= 0
_C102: __dummy <= 0
_C103: __dummy <= 0
_C104: __dummy <= 0
_C105: __dummy <= 0
_C106: __dummy <= 0
_C107: __dummy <= -9.09494701773e-13
_C108: __dummy <= 0
_C109: __dummy <= 0
_C11: __dummy <= 0
_C110: __dummy <= 0
_C111: __dummy <= 0
_C112: __dummy <= 0
_C113: __dummy <= 0
_C114: __dummy <= 0
_C115: __dummy <= 0
_C116: __dummy <= 0
_C117: __dummy <= 0
_C118: __dummy <= 0
_C119: __dummy <= 0
_C12: __dummy <= 0
_C120: __dummy <= 0
_C121: __dummy <= 0
_C122: __dummy <= 0
_C123: __dummy <= 0
_C124: __dummy <= 0
_C125: __dummy <= 0
_C126: __dummy <= 0
_C127: __dummy <= 0
_C128: __dummy <= 0
_C129: __dummy <= 0
_C13: __dummy <= 0
_C130: __dummy <= 0
_C131: __dummy <= 0
_C132: __dummy <= 0
_C133: __dummy <= 0
_C134: __dummy <= 0
_C135: __dummy <= 0
_C136: __dummy <= 0
_C137: __dummy <= 0
_C138: __dummy <= 0
_C139: __dummy <= 0
_C14: __dummy <= 0
_C140: __dummy <= 0
_C141: __dummy <= 0
_C142: __dummy <= 0
_C143: __dummy <= 0
_C144: __dummy <= 0
_C145: __dummy <= 0
_C146: __dummy <= 0
_C147: __dummy <= 0
_C148: __dummy <= 0
_C149: __dummy <= 0
_C15: __dummy <= 0
_C150: __dummy <= 0
_C151: __dummy <= 0
_C152: __dummy <= 0
_C153: __dummy <= 0
_C154: __dummy <= 0
_C155: __dummy <= 0
_C156: __dummy <= 0
_C157: __dummy <= 0
_C158: __dummy <= 0
_C159: __dummy <= 0
_C16: __dummy <= 0
_C160: __dummy <= 0
_C161: __dummy <= 0
_C162: __dummy <= 0
_C163: __dummy <= 0
_C164: __dummy <= 0
_C165: __dummy <= 0
_C166: __dummy <= 0
_C167: __dummy <= 0
_C168: __dummy <= 0
_C169: __dummy <= 0
_C17: __dummy <= 0
_C170: __dummy <= 0
_C171: __dummy <= 0
_C172: __dummy <= 0
_C173: __dummy <= 0
_C174: __dummy <= 0
_C175: __dummy <= 0
_C176: __dummy <= 0
_C177: __dummy <= 0
_C178: __dummy <= 0
_C179: __dummy <= 0
_C18: __dummy <= 0
_C180: __dummy <= 0
_C181: __dummy <= 0
_C182: __dummy <= 0
_C183: __dummy <= 0
_C184: __dummy <= 0
_C185: __dummy <= 0
_C186: __dummy <= 0
_C187: __dummy <= 0
_C188: __dummy <= 0
_C189: __dummy <= 0
_C19: __dummy <= 0
_C190: __dummy <= 0
_C191: __dummy <= 0
_C192: __dummy <= 0
_C193: __dummy <= 0
_C194: __dummy <= 0
_C195: __dummy <= 0
_C196: __dummy <= 0
_C197: __dummy <= 0
_C198: __dummy <= 0
_C199: __dummy <= 0
_C2: __dummy <= 0
_C20: __dummy <= 0
_C200: __dummy <= 0
_C201: __dummy <= 0
_C202: __dummy <= 0
_C203: __dummy <= 0
_C204: __dummy <= 0
_C205: __dummy <= 0
_C206: __dummy <= 0
_C207: __dummy <= 0
_C208: __dummy <= 0
_C209: __dummy <= 0
_C21: __dummy <= 0
_C210: __dummy <= 0
_C211: __dummy <= 0
_C212: __dummy <= 0
_C213: __dummy <= 0
_C214: __dummy <= 0
_C215: __dummy <= 0
_C216: __dummy <= 0
_C217: __dummy <= 0
_C218: __dummy <= 0
_C219: __dummy <= 0
_C22: __dummy <= 0
_C220: __dummy <= 0
_C221: __dummy <= 0
_C222: __dummy <= 0
_C223: __dummy <= 0
_C224: __dummy <= 0
_C225: __dummy <= 0
_C226: __dummy <= 0
_C227: __dummy <= 0
_C228: __dummy <= 0
_C229: __dummy <= 0
_C23: __dummy <= 0
_C230: __dummy <= 0
_C231: __dummy <= 0
_C232: __dummy <= 0
_C233: __dummy <= 0
_C234: __dummy <= 0
_C235: __dummy <= 0
_C236: __dummy <= 0
_C237: __dummy <= 0
_C238: __dummy <= 0
_C239: __dummy <= 0
_C24: __dummy <= 0
_C240: __dummy <= 0
_C241: __dummy <= 0
_C242: __dummy <= 0
_C243: __dummy <= 0
_C244: __dummy <= 0
_C245: __dummy <= 0
_C246: __dummy <= 0
_C247: __dummy <= 0
_C248: __dummy <= 0
_C249: __dummy <= 0
_C25: __dummy <= 0
_C250: __dummy <= 0
_C251: __dummy <= 0
_C252: __dummy <= 0
_C253: __dummy <= 0
_C254: __dummy <= 0
_C255: __dummy <= 0
_C256: __dummy <= 0
_C257: __dummy <= 0
_C258: __dummy <= 0
_C259: __dummy <= 0
_C26: __dummy <= 0
_C260: __dummy <= 0
_C261: __dummy <= 0
_C262: __dummy <= 0
_C263: __dummy <= 0
_C264: __dummy <= 0
_C265: __dummy <= 0
_C266: __dummy <= 0
_C267: __dummy <= 0
_C268: __dummy <= 0
_C269: __dummy <= 0
_C27: __dummy <= 0
_C270: __dummy <= 0
_C271: __dummy <= 0
_C272: __dummy <= 0
_C273: __dummy <= 0
_C274: __dummy <= 0
_C275: __dummy <= 0
_C276: __dummy <= 0
_C277: __dummy <= 0
_C278: __dummy <= 0
_C279: __dummy <= 0
_C28: __dummy <= 0
_C280: __dummy <= 0
_C281: __dummy <= 0
_C282: __dummy <= 0
_C283: __dummy <= 0
_C284: __dummy <= 0
_C285: __dummy <= 0
_C286: __dummy <= 0
_C287: __dummy <= 0
_C288: __dummy <= 0
_C289: __dummy <= 0
_C29: __dummy <= 0
_C290: __dummy <= 0
_C291: __dummy <= 0
_C292: __dummy <= 0
_C293: __dummy <= 0
_C294: __dummy <= 0
_C295: __dummy <= 0
_C296: __dummy <= 0
_C297: __dummy <= 0
_C298: __dummy <= 0
_C299: __dummy <= 0
_C3: __dummy <= 0
_C30: __dummy <= 0
_C300: __dummy <= 0
_C301: __dummy <= 0
_C302: __dummy <= 0
_C303: __dummy <= 0
_C304: __dummy <= 0
_C305: __dummy <= 0
_C306: __dummy <= 0
_C307: __dummy <= 0
_C308: __dummy <= 0
_C309: __dummy <= 0
_C31: __dummy <= 0
_C310: __dummy <= 0
_C311: __dummy <= 0
_C312: __dummy <= 0
_C313: __dummy <= 0
_C314: __dummy <= 0
_C315: __dummy <= 0
_C316: __dummy <= 0
_C317: __dummy <= 0
_C318: __dummy <= 0
_C319: __dummy <= 0
_C32: __dummy <= 0
_C320: __dummy <= 0
_C321: __dummy <= 0
_C322: __dummy <= 0
_C323: __dummy <= 0
_C324: __dummy <= 0
_C325: __dummy <= 0
_C326: __dummy <= 0
_C327: __dummy <= 0
_C328: __dummy <= 0
_C329: __dummy <= 0
_C33: __dummy <= 0
_C330: __dummy <= 0
_C331: __dummy <= 0
_C332: __dummy <= 0
_C333: __dummy <= 0
_C334: __dummy <= 0
_C335: __dummy <= 0
_C336: __dummy <= 0
_C337: __dummy <= 0
_C338: __dummy <= 0
_C339: __dummy <= 0
_C34: __dummy <= 0
_C340: __dummy <= 0
_C341: __dummy <= 0
_C342: __dummy <= 0
_C343: __dummy <= 0
_C344: __dummy <= 0
_C345: __dummy <= 0
_C346: __dummy <= 0
_C347: __dummy <= 0
_C348: __dummy <= 0
_C349: __dummy <= 0
_C35: __dummy <= 0
_C350: __dummy <= 0
_C351: __dummy <= 0
_C352: __dummy <= 0
_C353: __dummy <= 0
_C354: __dummy <= 0
_C355: __dummy <= 0
_C356: __dummy <= 0
_C357: __dummy <= 0
_C358: __dummy <= 0
_C359: __dummy <= 0
_C36: __dummy <= 0
_C360: __dummy <= 0
_C361: __dummy <= 0
_C362: __dummy <= 0
_C363: __dummy <= 0
_C364: __dummy <= 0
_C365: __dummy <= 0
_C366: __dummy <= 0
_C367: __dummy <= 0
_C368: __dummy <= 0
_C369: __dummy <= 0
_C37: __dummy <= 0
_C370: __dummy <= 0
_C371: __dummy <= 0
_C372: __dummy <= 0
_C373: __dummy <= 0
_C374: __dummy <= 0
_C375: __dummy <= 0
_C376: __dummy <= 0
_C377: __dummy <= 0
_C378: __dummy <= 0
_C379: __dummy <= 0
_C38: __dummy <= 0
_C380: __dummy <= 0
_C381: __dummy <= 0
_C382: __dummy <= 0
_C383: __dummy <= 0
_C384: __dummy <= 0
_C385: __dummy <= 0
_C386: __dummy <= 0
_C387: __dummy <= 0
_C388: __dummy <= 0
_C389: __dummy <= 0
_C39: __dummy <= 0
_C390: __dummy <= 0
_C391: __dummy <= 0
_C392: __dummy <= 0
_C393: __dummy <= 0
_C394: __dummy <= 0
_C395: __dummy <= 0
_C396: __dummy <= 0
_C397: __dummy <= 0
_C398: __dummy <= 0
_C399: __dummy <= 0
_C4: __dummy <= 0
_C40: __dummy <= 0
_C400: __dummy <= 0
_C401: __dummy <= 0
_C402: __dummy <= 0
_C403: __dummy <= 0
_C404: __dummy <= 0
_C405: __dummy <= 0
_C406: __dummy <= 0
_C407: __dummy <= 0
_C408: __dummy <= 0
_C409: __dummy <= 0
_C41: __dummy <= 0
_C410: __dummy <= 0
_C411: __dummy <= 0
_C412: __dummy <= 0
_C413: __dummy <= -9.09494701773e-13
_C414: __dummy <= 0
_C415: __dummy <= 0
_C416: __dummy <= 0
_C417: __dummy <= 0
_C418: __dummy <= 0
_C419: __dummy <= 0
_C42: __dummy <= 0
_C420: __dummy <= 0
_C421: __dummy <= 0
_C422: __dummy <= 0
_C423: __dummy <= 0
_C424: __dummy <= 0
_C425: __dummy <= 0
_C426: __dummy <= 0
_C427: __dummy <= 0
_C428: __dummy <= 0
_C429: __dummy <= 0
_C43: __dummy <= 0
_C430: __dummy <= 0
_C431: __dummy <= 0
_C432: __dummy <= 0
_C433: __dummy <= 0
_C434: __dummy <= 0
_C435: __dummy <= 0
_C436: __dummy <= 0
_C437: __dummy <= 0
_C438: __dummy <= 0
_C439: __dummy >= 0
_C44: __dummy <= 0
_C440: __dummy >= 0
_C441: __dummy >= 0
_C442: __dummy >= 0
_C443: __dummy >= 0
_C444: __dummy >= 0
_C445: __dummy >= 0
_C446: __dummy >= 0
_C447: __dummy >= 0
_C448: __dummy >= 0
_C449: __dummy >= 0
_C45: __dummy <= 0
_C450: __dummy >= 0
_C451: __dummy >= 0
_C452: __dummy >= 0
_C453: __dummy >= 0
_C454: __dummy >= 0
_C455: __dummy >= 0
_C456: __dummy >= 0
_C457: __dummy >= 0
_C458: __dummy >= 0
_C459: __dummy >= 0
_C46: __dummy <= 0
_C460: __dummy >= 0
_C461: __dummy >= 0
_C462: __dummy >= 0
_C463: __dummy >= 0
_C464: __dummy >= 0
_C465: __dummy >= 0
_C466: __dummy >= 0
_C467: __dummy >= 0
_C468: __dummy >= 0
_C469: __dummy >= 0
_C47: __dummy <= 0
_C470: __dummy >= 0
_C471: __dummy >= 0
_C472: __dummy >= 0
_C473: __dummy >= 0
_C474: __dummy >= 0
_C475: __dummy >= 0
_C476: __dummy >= 0
_C477: __dummy >= 0
_C478: __dummy >= 0
_C479: __dummy >= 0
_C48: __dummy <= 0
_C480: __dummy >= 0
_C481: __dummy >= 0
_C482: __dummy >= 0
_C483: __dummy >= 0
_C484: __dummy >= 0
_C485: __dummy >= 0
_C486: __dummy >= 0
_C487: __dummy >= 0
_C488: __dummy >= 0
_C489: __dummy >= 0
_C49: __dummy <= 0
_C490: __dummy >= 0
_C491: __dummy >= 0
_C492: __dummy >= 0
_C493: __dummy >= 0
_C494: __dummy >= 0
_C495: __dummy >= 0
_C496: __dummy >= 0
_C497: __dummy >= 0
_C498: __dummy >= 0
_C499: __dummy >= 0
_C5: __dummy <= 0
_C50: __dummy <= 0
_C500: __dummy >= 0
_C501: __dummy >= 0
_C502: __dummy >= 0
_C503: __dummy >= 0
_C504: __dummy >= 0
_C505: __dummy >= 0
_C506: __dummy >= 0
_C507: __dummy >= 0
_C508: __dummy >= 0
_C509: __dummy >= 0
_C51: __dummy <= 0
_C510: __dummy >= 0
_C511: __dummy >= 0
_C512: __dummy >= 0
_C513: __dummy >= 0
_C514: __dummy >= 0
_C515: __dummy >= 0
_C516: __dummy >= 0
_C517: __dummy >= 0
_C518: __dummy >= 0
_C519: __dummy >= 0
_C52: __dummy <= 0
_C520: __dummy >= 0
_C521: __dummy >= 0
_C522: __dummy >= 0
_C523: __dummy >= 0
_C524: __dummy >= 0
_C525: __dummy >= 0
_C526: __dummy >= 0
_C527: __dummy >= 0
_C528: __dummy >= 0
_C529: __dummy >= 0
_C53: __dummy <= 0
_C530: __dummy >= 0
_C531: __dummy >= 0
_C532: __dummy >= 0
_C533: __dummy >= 0
_C534: __dummy >= 0
_C535: __dummy >= 0
_C536: __dummy >= 0
_C537: __dummy >= 0
_C538: __dummy >= 0
_C539: __dummy >= 0
_C54: __dummy <= 0
_C540: __dummy >= 0
_C541: __dummy >= 0
_C542: __dummy >= 0
_C543: __dummy >= 0
_C544: __dummy >= 0
_C545: __dummy >= -9.09494701773e-13
_C546: __dummy >= 0
_C547: __dummy >= 0
_C548: __dummy >= 0
_C549: __dummy >= 0
_C55: __dummy <= 0
_C550: __dummy >= 0
_C551: __dummy >= 0
_C552: __dummy >= 0
_C553: __dummy >= 0
_C554: __dummy >= 0
_C555: __dummy >= 0
_C556: __dummy >= 0
_C557: __dummy >= 0
_C558: __dummy >= 0
_C559: __dummy >= 0
_C56: __dummy <= 0
_C560: __dummy >= 0
_C561: __dummy >= 0
_C562: __dummy >= 0
_C563: __dummy >= 0
_C564: __dummy >= 0
_C565: __dummy >= 0
_C566: __dummy >= 0
_C567: __dummy >= 0
_C568: __dummy >= 0
_C569: __dummy >= 0
_C57: __dummy <= 0
_C570: __dummy >= 0
_C571: __dummy >= 0
_C572: __dummy >= 0
_C573: __dummy >= 0
_C574: __dummy >= 0
_C575: __dummy >= 0
_C576: __dummy >= 0
_C577: __dummy >= 0
_C578: __dummy >= 0
_C579: __dummy >= 0
_C58: __dummy <= 0
_C580: __dummy >= 0
_C581: __dummy >= 0
_C582: __dummy >= 0
_C583: __dummy >= 0
_C584: __dummy >= 0
_C585: __dummy >= 0
_C586: __dummy >= 0
_C587: __dummy >= 0
_C588: __dummy >= 0
_C589: __dummy >= 0
_C59: __dummy <= 0
_C590: __dummy >= 0
_C591: __dummy >= 0
_C592: __dummy >= 0
_C593: __dummy >= 0
_C594: __dummy >= 0
_C595: __dummy >= 0
_C596: __dummy >= 0
_C597: __dummy >= 0
_C598: __dummy >= 0
_C599: __dummy >= 0
_C6: __dummy <= 0
_C60: __dummy <= 0
_C600: __dummy >= 0
_C601: __dummy >= 0
_C602: __dummy >= 0
_C603: __dummy >= 0
_C604: __dummy >= 0
_C605: __dummy >= 0
_C606: __dummy >= 0
_C607: __dummy >= 0
_C608: __dummy >= 0
_C609: __dummy >= 0
_C61: __dummy <= 0
_C610: __dummy >= 0
_C611: __dummy >= 0
_C612: __dummy >= 0
_C613: __dummy >= 0
_C614: __dummy >= 0
_C615: __dummy >= 0
_C616: __dummy >= 0
_C617: __dummy >= 0
_C618: __dummy >= 0
_C619: __dummy >= 0
_C62: __dummy <= 0
_C620: __dummy >= 0
_C621: __dummy >= 0
_C622: __dummy >= 0
_C623: __dummy >= 0
_C624: __dummy >= 0
_C625: __dummy >= 0
_C626: __dummy >= 0
_C627: __dummy >= 0
_C628: __dummy >= 0
_C629: __dummy >= 0
_C63: __dummy <= 0
_C630: __dummy >= 0
_C631: __dummy >= 0
_C632: __dummy >= 0
_C633: __dummy >= 0
_C634: __dummy >= 0
_C635: __dummy >= 0
_C636: __dummy >= 0
_C637: __dummy >= 0
_C638: __dummy >= 0
_C639: __dummy >= 0
_C64: __dummy <= 0
_C640: __dummy >= 0
_C641: __dummy >= 0
_C642: __dummy >= 0
_C643: __dummy >= 0
_C644: __dummy >= 0
_C645: __dummy >= 0
_C646: __dummy >= 0
_C647: __dummy >= 0
_C648: __dummy >= 0
_C649: __dummy >= 0
_C65: __dummy <= 0
_C650: __dummy >= 0
_C651: __dummy >= 0
_C652: __dummy >= 0
_C653: __dummy >= 0
_C654: __dummy >= 0
_C655: __dummy >= 0
_C656: __dummy >= 0
_C657: __dummy >= 0
_C658: __dummy >= 0
_C659: __dummy >= 0
_C66: __dummy <= 0
_C660: __dummy >= 0
_C661: __dummy >= 0
_C662: __dummy >= 0
_C663: __dummy >= 0
_C664: __dummy >= 0
_C665: __dummy >= 0
_C666: __dummy >= 0
_C667: __dummy >= 0
_C668: __dummy >= 0
_C669: __dummy >= 0
_C67: __dummy <= 0
_C670: __dummy >= 0
_C671: __dummy >= 0
_C672: __dummy >= 0
_C673: __dummy >= 0
_C674: __dummy >= 0
_C675: __dummy >= 0
_C676: __dummy >= 0
_C677: __dummy >= 0
_C678: __dummy >= 0
_C679: __dummy >= 0
_C68: __dummy <= 0
_C680: __dummy >= 0
_C681: __dummy >= 0
_C682: __dummy >= 0
_C683: __dummy >= 0
_C684: __dummy >= 0
_C685: __dummy >= 0
_C686: __dummy >= 0
_C687: __dummy >= 0
_C688: __dummy >= 0
_C689: __dummy >= 0
_C69: __dummy <= 0
_C690: __dummy >= 0
_C691: __dummy >= 0
_C692: __dummy >= 0
_C693: __dummy >= 0
_C694: __dummy >= 0
_C695: __dummy >= 0
_C696: __dummy >= 0
_C697: __dummy >= 0
_C698: __dummy >= 0
_C699: __dummy >= 0
_C7: __dummy <= 0
_C70: __dummy <= 0
_C700: __dummy >= 0
_C701: __dummy >= 0
_C702: __dummy >= 0
_C703: __dummy >= 0
_C704: __dummy >= 0
_C705: __dummy >= 0
_C706: __dummy >= 0
_C707: __dummy >= 0
_C708: __dummy >= 0
_C709: __dummy >= 0
_C71: __dummy <= 0
_C710: __dummy >= 0
_C711: __dummy >= 0
_C712: __dummy >= 0
_C713: __dummy >= 0
_C714: __dummy >= 0
_C715: __dummy >= 0
_C716: __dummy >= 0
_C717: __dummy >= 0
_C718: __dummy >= 0
_C719: __dummy >= 0
_C72: __dummy <= 0
_C720: __dummy >= 0
_C721: __dummy >= 0
_C722: __dummy >= 0
_C723: __dummy >= 0
_C724: __dummy >= 0
_C725: __dummy >= 0
_C726: __dummy >= 0
_C727: __dummy >= 0
_C728: __dummy >= 0
_C729: __dummy >= 0
_C73: __dummy <= 0
_C730: __dummy >= 0
_C731: __dummy >= 0
_C732: __dummy >= 0
_C733: __dummy >= 0
_C734: __dummy >= 0
_C735: __dummy >= 0
_C736: __dummy >= 0
_C737: __dummy >= 0
_C738: __dummy >= 0
_C739: __dummy >= 0
_C74: __dummy <= 0
_C740: __dummy >= 0
_C741: __dummy >= 0
_C742: __dummy >= 0
_C743: __dummy >= 0
_C744: __dummy >= 0
_C745: __dummy >= 0
_C746: __dummy >= 0
_C747: __dummy >= 0
_C748: __dummy >= 0
_C749: __dummy >= 0
_C75: __dummy <= 0
_C750: __dummy >= 0
_C751: __dummy >= 0
_C752: __dummy >= 0
_C753: __dummy >= 0
_C754: __dummy >= 0
_C755: __dummy >= 0
_C756: __dummy >= 0
_C757: __dummy >= 0
_C758: __dummy >= 0
_C759: __dummy >= 0
_C76: __dummy <= 0
_C760: __dummy >= 0
_C761: __dummy >= 0
_C762: __dummy >= 0
_C763: __dummy >= 0
_C764: __dummy >= 0
_C765: __dummy >= 0
_C766: __dummy >= 0
_C767: __dummy >= 0
_C768: __dummy >= 0
_C769: __dummy >= 0
_C77: __dummy <= 0
_C770: __dummy >= 0
_C771: __dummy >= 0
_C772: __dummy >= 0
_C773: __dummy >= 0
_C774: __dummy >= 0
_C775: __dummy >= 0
_C776: __dummy >= 0
_C777: __dummy >= 0
_C778: __dummy >= 0
_C779: __dummy >= 0
_C78: __dummy <= 0
_C780: __dummy >= 0
_C781: __dummy >= 0
_C782: __dummy >= 0
_C783: __dummy >= 0
_C784: __dummy >= 0
_C785: __dummy >= 0
_C786: __dummy >= 0
_C787: __dummy >= 0
_C788: __dummy >= 0
_C789: __dummy >= 0
_C79: __dummy <= 0
_C790: __dummy >= 0
_C791: __dummy >= 0
_C792: __dummy >= 0
_C793: __dummy >= 0
_C794: __dummy >= 0
_C795: __dummy >= 0
_C796: __dummy >= 0
_C797: __dummy >= 0
_C798: __dummy >= 0
_C799: __dummy >= 0
_C8: __dummy <= 0
_C80: __dummy <= 0
_C800: __dummy >= 0
_C801: __dummy >= 0
_C802: __dummy >= 0
_C803: __dummy >= 0
_C804: __dummy >= 0
_C805: __dummy >= 0
_C806: __dummy >= 0
_C807: __dummy >= 0
_C808: __dummy >= 0
_C809: __dummy >= 0
_C81: __dummy <= 0
_C810: __dummy >= 0
_C811: __dummy >= 0
_C812: __dummy >= 0
_C813: __dummy >= 0
_C814: __dummy >= 0
_C815: __dummy >= 0
_C816: __dummy >= 0
_C817: __dummy >= 0
_C818: __dummy >= 0
_C819: __dummy >= 0
_C82: __dummy <= 0
_C820: __dummy >= 0
_C821: __dummy >= 0
_C822: __dummy >= 0
_C823: __dummy >= 0
_C824: __dummy >= 0
_C825: __dummy >= 0
_C826: __dummy >= 0
_C827: __dummy >= 0
_C828: __dummy >= 0
_C829: __dummy >= 0
_C83: __dummy <= 0
_C830: __dummy >= 0
_C831: __dummy >= 0
_C832: __dummy >= 0
_C833: __dummy >= 0
_C834: __dummy >= 0
_C835: __dummy >= 0
_C836: __dummy >= 0
_C837: __dummy >= 0
_C838: __dummy >= 0
_C839: __dummy >= 0
_C84: __dummy <= 0
_C840: __dummy >= 0
_C841: __dummy >= 0
_C842: __dummy >= 0
_C843: __dummy >= 0
_C844: __dummy >= 0
_C845: __dummy >= 0
_C846: __dummy >= 0
_C847: __dummy >= 0
_C848: __dummy >= 0
_C849: __dummy >= 0
_C85: __dummy <= 0
_C850: __dummy >= 0
_C851: __dummy >= -9.09494701773e-13
_C852: __dummy >= 0
_C853: __dummy >= 0
_C854: __dummy >= 0
_C855: __dummy >= 0
_C856: __dummy >= 0
_C857: __dummy >= 0
_C858: __dummy >= 0
_C859: __dummy >= 0
_C86: __dummy <= 0
_C860: __dummy >= 0
_C861: __dummy >= 0
_C862: __dummy >= 0
_C863: __dummy >= 0
_C864: __dummy >= 0
_C865: __dummy >= 0
_C866: __dummy >= 0
_C867: __dummy >= 0
_C868: __dummy >= 0
_C869: __dummy >= 0
_C87: __dummy <= 0
_C870: __dummy >= 0
_C871: __dummy >= 0
_C872: __dummy >= 0
_C873: __dummy >= 0
_C874: __dummy >= 0
_C875: __dummy >= 0
_C876: __dummy >= 0
_C88: __dummy <= 0
_C89: __dummy <= 0
_C9: __dummy <= 0
_C90: __dummy <= 0
_C91: __dummy <= 0
_C92: __dummy <= 0
_C93: __dummy <= 0
_C94: __dummy <= 0
_C95: __dummy <= 0
_C96: __dummy <= 0
_C97: __dummy <= 0
_C98: __dummy <= 0
_C99: __dummy <= 0
Bounds
 __dummy = 0
End
